100
32
12
23
2
18
12
5
28
17
14
11
19
10
9
13
25
24
22
25
17
32
24
24
27
28
2
1
20
32
25
10
26
2
12
24
20
3
24
21
8
6
19
17
18
6
27
16
30
2
26
22
32
12
13
17
29
14
4
17
3
17
30
21
31
19
24
21
6
17
19
26
18
20
20
17
7
4
22
32
17
32
9
31
17
23
8
5
3
27
2
26
5
31
3
24
23
20
10
25
22
21